100 500 200 500 10 100
58 243
15 448
30 430
29 272
57 342
19 373
39 223
56 201
51 400
83 400
59 478
84 500
26 248
68 340
43 448
98 433
43 497
10 392
90 310
31 394
74 496
61 397
31 368
77 270
42 402
13 389
78 293
11 403
36 268
67 294
44 274
78 455
84 356
57 394
97 208
74 316
36 302
35 420
41 308
45 236
24 408
43 287
88 462
11 239
30 380
47 494
11 259
57 422
55 493
59 279
100 402
74 453
19 356
62 371
26 260
40 371
99 230
48 367
34 295
26 419
87 438
34 377
94 258
74 361
12 413
52 500
71 283
16 215
77 221
84 300
64 242
87 499
68 327
65 412
54 469
63 397
98 441
83 403
31 372
93 447
95 452
51 297
60 295
98 422
78 448
46 347
22 391
20 410
38 459
34 440
19 349
76 333
37 360
60 486
67 498
99 214
87 377
79 433
23 374
52 237
